data;

param D:=4;
param E:=14;

set PATH[1] :=1 2 3 4 5 6 7 8 9 10;
set PATH[2] :=1 2 3 4 5 6 7 8 9 10;
set PATH[3] :=1 2 3 4 5 6 7 8 9;
set PATH[4] :=1 2 3 4 5 6;

param h :=
 1 12
 2 10
 3 16
 4 18;

param k :=
 1 4
 2 4
 3 4
 4 4;

param l :=
 1 4
 2 4
 3 4
 4 4;

param q :=
 1 0.1
 2 0.1
 3 0.1
 4 0.1
 5 0.2
 6 0.2
 7 0.2
 8 0.2
 9 0.2
 10 0.3
 11 0.3
 12 0.3
 13 0.3
 14 0.3;

param cost :=
 1 3
 2 6
 3 5
 4 1
 5 4
 6 2
 7 3
 8 5
 9 6
 10 2
 11 4
 12 5
 13 6
 14 5;

param judge :=
 [1,*,*]:	1	2	3	4	5	6	7	8	9	10 :=
	1	1	0	1	0	0	0	0	0	0	0
	2	1	0	1	0	0	0	0	0	0	0
	3	0	1	0	1	0	0	1	0	0	1
	4	0	0	0	0	1	1	0	1	1	0
	5	0	0	0	0	1	1	0	1	0	1
	6	1	1	0	0	0	1	0	0	0	0
	7	0	0	1	1	1	0	0	0	0	0
	8	0	0	0	0	0	0	1	1	0	0
	9	0	0	0	0	0	0	0	0	1	1
	10	0	0	0	0	0	0	0	0	1	1
	11	1	1	0	0	0	1	0	0	0	0
	12	1	1	1	1	1	1	0	0	0	0
	13	0	0	0	0	0	0	1	1	1	1
	14	0	0	0	0	0	0	0	0	1	1

 [2,*,*]:	1	2	3	4	5	6	7	8	9	10 :=
	1	0	0	0	0	0	0	0	0	0	0
	2	0	0	0	0	0	0	0	0	0	0
	3	0	0	0	0	1	0	0	0	1	0
	4	0	0	0	1	1	0	0	1	1	0
	5	0	0	0	0	0	1	0	0	0	1
	6	0	1	1	1	1	1	0	0	0	0
	7	0	1	0	0	0	0	1	1	1	1
	8	0	0	1	0	0	0	1	0	0	0
	9	0	0	0	1	1	1	0	1	1	1
	10	0	0	0	1	1	1	0	1	1	1
	11	1	0	0	0	0	0	1	1	1	1
	12	1	1	0	1	0	0	0	1	0	0
	13	1	1	0	0	0	0	0	0	0	0
	14	0	0	0	1	1	1	0	1	1	1

 [3,*,*]:	1	2	3	4	5	6	7	8	9 :=
	1	1	1	0	0	0	0	0	0	0
	2	1	1	0	0	0	0	0	0	0
	3	0	0	1	1	0	0	0	0	0
	4	1	1	1	1	0	0	0	0	0
	5	0	0	0	0	1	1	0	0	0
	6	1	0	1	0	1	0	0	1	0
	7	0	1	0	1	0	1	0	0	1
	8	0	0	0	0	0	0	0	1	1
	9	0	0	0	0	0	0	1	1	1
	10	0	0	0	0	0	0	1	1	1
	11	1	0	1	0	1	0	0	1	0
	12	0	0	0	0	0	0	1	0	0
	13	0	0	0	0	0	0	1	0	0
	14	0	0	0	0	0	0	1	1	1

 [4,*,*]:	1	2	3	4	5	6 :=
	1	1	0	0	0	0	0
	2	1	0	0	0	0	0
	3	0	1	0	0	0	0
	4	1	1	0	0	0	0
	5	0	0	1	0	0	0
	6	0	0	0	1	0	0
	7	0	0	0	0	1	0
	8	0	0	0	0	0	1
	9	1	1	1	1	1	1
	10	0	0	0	1	1	1
	11	0	0	0	1	0	0
	12	0	0	0	1	1	0
	13	0	0	0	1	1	0
	14	0	0	0	1	1	1;
